webassembly/ejemplos_dzn/folder10_json_39.dzn
TERM = { '.', 's(2)', 's(4)', 'local_0', 'local_1', 's(1)', 's(0)', 's(3)'};
null = '.';
s = 10;
n = 8;
ndeps = 3;
max_registers_sz = 4;
NR = 1;
registers = [|'local_0', 's(4)'|];
dependencies = [|'i32.load8_s_1', 'i32.store8_9', |'i32.load8_s_7', 'i32.store8_9', |'i32.load16_u_8', 'i32.store8_9'|];
GET_ENUM = { GET1, GET2, GET3, GET4, GET5};
SET_ENUM = { SET1, SET2, SET3, SET4, SET5};
TEE_ENUM = { TEE1, TEE2, TEE3, TEE4, TEE5};
N = 7;
OP = { 'i32.load8_s_1', 'i32.const_0', 'i32.load8_s_7', 'i32.load16_u_8', 'i32.add_0', 'i32.store8_9', 'local.get_0' };
in_ops = [1, 0, 1, 1, 2, 2, 0 ];
out_ops = [1, 1, 1, 1, 1, 0, 1 ];
in1 = ['local_1', '.', 's(4)', 's(2)', 'local_0', 's(3)', '.' ];
in2 = ['.', '.', '.', '.', 's(0)', 's(1)', '.' ];
in3 = ['.', '.', '.', '.', '.', '.', '.' ];
out1 = ['s(0)', 's(4)', 's(2)', 's(3)', 's(1)', '.', 'local_1' ];
out2 = ['.', '.', '.', '.', '.', '.', '.' ];
out3 = ['.', '.', '.', '.', '.', '.', '.' ];
comm = [false, false, false, false, true, false, false ];
gas = [1, 1, 1, 1, 1, 1, 1 ];
sz = [1, 1, 1, 1, 1, 1, 1 ];
stor = [false, false, false, false, false, true, false ];
lb = [ 1, 1, 1, 1, 1, 1, 1 ];
ub = [ 10, 10, 10, 10, 10, 10, 10 ];
startstack = [ null, null, null, null, null, null, null, null ];
endstack = [ null, null, null, null, null, null, null, null ];
